; benchmark generated from python API
(set-info :status unknown)
(declare-fun x_epoch () Int)
(declare-fun x_shift_period_922371_epoch () Int)
(declare-fun x_year () Int)
(declare-fun x_month () Int)
(declare-fun x_day () Int)
(declare-fun x_shift_period_922371_year () Int)
(declare-fun x_shift_period_922371_month () Int)
(declare-fun x_shift_period_922371_day () Int)
(declare-fun x_shift_period_929858_epoch () Int)
(declare-fun x_shift_period_929858_year () Int)
(declare-fun x_shift_period_929858_month () Int)
(declare-fun x_shift_period_929858_day () Int)
(assert
 (>= x_epoch (- 36584)))
(assert
 (<= x_epoch 36829))
(assert
 (>= x_epoch 8341))
(assert
 (<= x_epoch 8705))
(assert
 (>= x_shift_period_922371_epoch (- 36584)))
(assert
 (<= x_shift_period_922371_epoch 36829))
(assert
 (let (($x283 (<= x_year 2100)))
 (let (($x754 (>= x_year 1900)))
 (let (($x3422 (= x_month 11)))
 (let (($x2295 (= x_month 9)))
 (let (($x786 (= x_month 6)))
 (let (($x3484 (= x_month 4)))
 (let ((?x4082 (ite (or $x3484 $x786 $x2295 $x3422) 30 31)))
 (let (($x2906 (= (mod x_year 4) 0)))
 (let (($x3454 (= (mod x_year 100) 0)))
 (let (($x2726 (= (mod x_year 400) 0)))
 (let (($x189 (ite $x2726 true (ite $x3454 false $x2906))))
 (let (($x2129 (= x_month 2)))
 (let ((?x4047 (ite $x2129 (ite $x189 29 28) ?x4082)))
 (let (($x3715 (>= x_day 1)))
 (let (($x3360 (<= x_month 12)))
 (let (($x3501 (>= x_month 1)))
 (and $x3501 $x3360 $x3715 (<= x_day ?x4047) $x754 $x283))))))))))))))))))
(assert
 (let (($x29 (or (and (= (mod 2000 4) 0) (and (distinct (mod 2000 100) 0) true)) (= (mod 2000 400) 0))))
 (let ((?x36 (ite (= 3 2) (ite $x29 31 31) (ite (= 3 1) (ite $x29 0 0) 0))))
 (let ((?x40 (ite $x29 60 59)))
 (let ((?x41 (ite (= 3 3) ?x40 ?x36)))
 (let ((?x46 (ite (= 3 4) (ite $x29 91 90) ?x41)))
 (let ((?x52 (ite (= 3 5) (ite $x29 121 120) ?x46)))
 (let ((?x58 (ite (= 3 6) (ite $x29 152 151) ?x52)))
 (let ((?x64 (ite (= 3 7) (ite $x29 182 181) ?x58)))
 (let ((?x70 (ite (= 3 8) (ite $x29 213 212) ?x64)))
 (let ((?x76 (ite (= 3 9) (ite $x29 244 243) ?x70)))
 (let ((?x82 (ite (= 3 10) (ite $x29 274 273) ?x76)))
 (let ((?x88 (ite (= 3 11) (ite $x29 305 304) ?x82)))
 (let ((?x16 (- (+ (* 365 (- 2000 1)) (div (- 2000 1) 4)) (div (- 2000 1) 100))))
 (let ((?x95 (+ (+ ?x16 (div (- 2000 1) 400)) (ite (= 3 12) (ite $x29 335 334) ?x88))))
 (let ((?x97 (+ ?x95 (- 1 1))))
 (let (($x2906 (= (mod x_year 4) 0)))
 (let (($x3454 (= (mod x_year 100) 0)))
 (let (($x2726 (= (mod x_year 400) 0)))
 (let (($x189 (ite $x2726 true (ite $x3454 false $x2906))))
 (let (($x3730 (= 2 x_month)))
 (let ((?x3597 (ite $x3730 (ite $x189 31 31) (ite (= 1 x_month) (ite $x189 0 0) 0))))
 (let (($x1755 (= 3 x_month)))
 (let (($x117 (= 4 x_month)))
 (let ((?x1130 (ite $x117 (ite $x189 91 90) (ite $x1755 (ite $x189 60 59) ?x3597))))
 (let (($x279 (= 5 x_month)))
 (let (($x1078 (= 6 x_month)))
 (let ((?x320 (ite $x1078 (ite $x189 152 151) (ite $x279 (ite $x189 121 120) ?x1130))))
 (let (($x469 (= 7 x_month)))
 (let (($x1027 (= 8 x_month)))
 (let ((?x3612 (ite $x1027 (ite $x189 213 212) (ite $x469 (ite $x189 182 181) ?x320))))
 (let (($x652 (= 9 x_month)))
 (let (($x885 (= 10 x_month)))
 (let ((?x1674 (ite $x885 (ite $x189 274 273) (ite $x652 (ite $x189 244 243) ?x3612))))
 (let (($x929 (= 11 x_month)))
 (let (($x3499 (= 12 x_month)))
 (let ((?x1904 (ite $x3499 (ite $x189 335 334) (ite $x929 (ite $x189 305 304) ?x1674))))
 (let ((?x1268 (- (+ (* 365 (- x_year 1)) (div (- x_year 1) 4)) (div (- x_year 1) 100))))
 (let ((?x3966 (+ (+ (+ ?x1268 (div (- x_year 1) 400)) ?x1904) (- x_day 1))))
 (= x_epoch (- ?x3966 ?x97)))))))))))))))))))))))))))))))))))))))))
(assert
 (let (($x2224 (<= x_shift_period_922371_year 2100)))
 (let (($x1326 (>= x_shift_period_922371_year 1900)))
 (let (($x3049 (= x_shift_period_922371_month 11)))
 (let (($x1370 (= x_shift_period_922371_month 9)))
 (let (($x3695 (= x_shift_period_922371_month 6)))
 (let (($x4050 (= x_shift_period_922371_month 4)))
 (let ((?x621 (ite (or $x4050 $x3695 $x1370 $x3049) 30 31)))
 (let (($x224 (= (mod x_shift_period_922371_year 4) 0)))
 (let (($x316 (= (mod x_shift_period_922371_year 100) 0)))
 (let (($x3183 (= (mod x_shift_period_922371_year 400) 0)))
 (let (($x3069 (ite $x3183 true (ite $x316 false $x224))))
 (let (($x2707 (= x_shift_period_922371_month 2)))
 (let (($x2385 (>= x_shift_period_922371_day 1)))
 (let (($x2176 (<= x_shift_period_922371_month 12)))
 (let (($x2602 (>= x_shift_period_922371_month 1)))
 (and $x2602 $x2176 $x2385 (<= x_shift_period_922371_day (ite $x2707 (ite $x3069 29 28) ?x621)) $x1326 $x2224)))))))))))))))))
(assert
 (let (($x29 (or (and (= (mod 2000 4) 0) (and (distinct (mod 2000 100) 0) true)) (= (mod 2000 400) 0))))
 (let ((?x36 (ite (= 3 2) (ite $x29 31 31) (ite (= 3 1) (ite $x29 0 0) 0))))
 (let ((?x40 (ite $x29 60 59)))
 (let ((?x41 (ite (= 3 3) ?x40 ?x36)))
 (let ((?x46 (ite (= 3 4) (ite $x29 91 90) ?x41)))
 (let ((?x52 (ite (= 3 5) (ite $x29 121 120) ?x46)))
 (let ((?x58 (ite (= 3 6) (ite $x29 152 151) ?x52)))
 (let ((?x64 (ite (= 3 7) (ite $x29 182 181) ?x58)))
 (let ((?x70 (ite (= 3 8) (ite $x29 213 212) ?x64)))
 (let ((?x76 (ite (= 3 9) (ite $x29 244 243) ?x70)))
 (let ((?x82 (ite (= 3 10) (ite $x29 274 273) ?x76)))
 (let ((?x88 (ite (= 3 11) (ite $x29 305 304) ?x82)))
 (let ((?x16 (- (+ (* 365 (- 2000 1)) (div (- 2000 1) 4)) (div (- 2000 1) 100))))
 (let ((?x95 (+ (+ ?x16 (div (- 2000 1) 400)) (ite (= 3 12) (ite $x29 335 334) ?x88))))
 (let ((?x97 (+ ?x95 (- 1 1))))
 (let (($x224 (= (mod x_shift_period_922371_year 4) 0)))
 (let (($x316 (= (mod x_shift_period_922371_year 100) 0)))
 (let (($x3183 (= (mod x_shift_period_922371_year 400) 0)))
 (let (($x3069 (ite $x3183 true (ite $x316 false $x224))))
 (let ((?x2777 (ite (= 1 x_shift_period_922371_month) (ite $x3069 0 0) 0)))
 (let ((?x170 (ite (= 3 x_shift_period_922371_month) (ite $x3069 60 59) (ite (= 2 x_shift_period_922371_month) (ite $x3069 31 31) ?x2777))))
 (let ((?x3793 (ite (= 5 x_shift_period_922371_month) (ite $x3069 121 120) (ite (= 4 x_shift_period_922371_month) (ite $x3069 91 90) ?x170))))
 (let ((?x1099 (ite (= 7 x_shift_period_922371_month) (ite $x3069 182 181) (ite (= 6 x_shift_period_922371_month) (ite $x3069 152 151) ?x3793))))
 (let ((?x2584 (ite (= 9 x_shift_period_922371_month) (ite $x3069 244 243) (ite (= 8 x_shift_period_922371_month) (ite $x3069 213 212) ?x1099))))
 (let ((?x2530 (ite (= 11 x_shift_period_922371_month) (ite $x3069 305 304) (ite (= 10 x_shift_period_922371_month) (ite $x3069 274 273) ?x2584))))
 (let ((?x2160 (+ (* 365 (- x_shift_period_922371_year 1)) (div (- x_shift_period_922371_year 1) 4))))
 (let ((?x2462 (+ (- ?x2160 (div (- x_shift_period_922371_year 1) 100)) (div (- x_shift_period_922371_year 1) 400))))
 (let ((?x171 (+ ?x2462 (ite (= 12 x_shift_period_922371_month) (ite $x3069 335 334) ?x2530))))
 (= x_shift_period_922371_epoch (- (+ ?x171 (- x_shift_period_922371_day 1)) ?x97)))))))))))))))))))))))))))))))
(assert
 (let ((?x503 (* 12 x_year)))
 (let ((?x3494 (+ ?x503 (- x_month 1))))
 (let ((?x3610 (+ ?x3494 2)))
 (let ((?x256 (div ?x3610 12)))
 (= x_shift_period_922371_year ?x256))))))
(assert
 (let ((?x656 (+ (mod (+ (+ (* 12 x_year) (- x_month 1)) 2) 12) 1)))
 (= x_shift_period_922371_month ?x656)))
(assert
 (let ((?x656 (+ (mod (+ (+ (* 12 x_year) (- x_month 1)) 2) 12) 1)))
 (let ((?x2645 (ite (or (= ?x656 4) (= ?x656 6) (= ?x656 9) (= ?x656 11)) 30 31)))
 (let ((?x503 (* 12 x_year)))
 (let ((?x3494 (+ ?x503 (- x_month 1))))
 (let ((?x3610 (+ ?x3494 2)))
 (let ((?x256 (div ?x3610 12)))
 (let (($x1101 (ite (= (mod ?x256 400) 0) true (ite (= (mod ?x256 100) 0) false (= (mod ?x256 4) 0)))))
 (let ((?x1930 (ite (= ?x656 2) (ite $x1101 29 28) ?x2645)))
 (let ((?x2548 (ite (<= x_day ?x1930) x_day ?x1930)))
 (let (($x3422 (= x_month 11)))
 (let (($x2295 (= x_month 9)))
 (let (($x786 (= x_month 6)))
 (let (($x3484 (= x_month 4)))
 (let ((?x4082 (ite (or $x3484 $x786 $x2295 $x3422) 30 31)))
 (let (($x2906 (= (mod x_year 4) 0)))
 (let (($x3454 (= (mod x_year 100) 0)))
 (let (($x2726 (= (mod x_year 400) 0)))
 (let (($x189 (ite $x2726 true (ite $x3454 false $x2906))))
 (let (($x2129 (= x_month 2)))
 (let ((?x4047 (ite $x2129 (ite $x189 29 28) ?x4082)))
 (let (($x132 (= x_day ?x4047)))
 (= x_shift_period_922371_day (ite false (ite $x132 ?x1930 ?x2548) ?x2548))))))))))))))))))))))))
(assert
 (>= x_shift_period_929858_epoch (- 36584)))
(assert
 (<= x_shift_period_929858_epoch 36829))
(assert
 (let (($x2625 (<= x_shift_period_929858_year 2100)))
 (let (($x1910 (>= x_shift_period_929858_year 1900)))
 (let (($x2478 (= x_shift_period_929858_month 11)))
 (let (($x3463 (= x_shift_period_929858_month 9)))
 (let (($x2865 (= x_shift_period_929858_month 6)))
 (let (($x3573 (= x_shift_period_929858_month 4)))
 (let ((?x2563 (ite (or $x3573 $x2865 $x3463 $x2478) 30 31)))
 (let (($x3430 (= (mod x_shift_period_929858_year 4) 0)))
 (let (($x144 (= (mod x_shift_period_929858_year 100) 0)))
 (let (($x3646 (= (mod x_shift_period_929858_year 400) 0)))
 (let (($x1261 (ite $x3646 true (ite $x144 false $x3430))))
 (let (($x1683 (= x_shift_period_929858_month 2)))
 (let (($x3078 (>= x_shift_period_929858_day 1)))
 (let (($x1886 (<= x_shift_period_929858_month 12)))
 (let (($x700 (>= x_shift_period_929858_month 1)))
 (and $x700 $x1886 $x3078 (<= x_shift_period_929858_day (ite $x1683 (ite $x1261 29 28) ?x2563)) $x1910 $x2625)))))))))))))))))
(assert
 (let (($x29 (or (and (= (mod 2000 4) 0) (and (distinct (mod 2000 100) 0) true)) (= (mod 2000 400) 0))))
 (let ((?x36 (ite (= 3 2) (ite $x29 31 31) (ite (= 3 1) (ite $x29 0 0) 0))))
 (let ((?x40 (ite $x29 60 59)))
 (let ((?x41 (ite (= 3 3) ?x40 ?x36)))
 (let ((?x46 (ite (= 3 4) (ite $x29 91 90) ?x41)))
 (let ((?x52 (ite (= 3 5) (ite $x29 121 120) ?x46)))
 (let ((?x58 (ite (= 3 6) (ite $x29 152 151) ?x52)))
 (let ((?x64 (ite (= 3 7) (ite $x29 182 181) ?x58)))
 (let ((?x70 (ite (= 3 8) (ite $x29 213 212) ?x64)))
 (let ((?x76 (ite (= 3 9) (ite $x29 244 243) ?x70)))
 (let ((?x82 (ite (= 3 10) (ite $x29 274 273) ?x76)))
 (let ((?x88 (ite (= 3 11) (ite $x29 305 304) ?x82)))
 (let ((?x16 (- (+ (* 365 (- 2000 1)) (div (- 2000 1) 4)) (div (- 2000 1) 100))))
 (let ((?x95 (+ (+ ?x16 (div (- 2000 1) 400)) (ite (= 3 12) (ite $x29 335 334) ?x88))))
 (let ((?x97 (+ ?x95 (- 1 1))))
 (let (($x3430 (= (mod x_shift_period_929858_year 4) 0)))
 (let (($x144 (= (mod x_shift_period_929858_year 100) 0)))
 (let (($x3646 (= (mod x_shift_period_929858_year 400) 0)))
 (let (($x1261 (ite $x3646 true (ite $x144 false $x3430))))
 (let ((?x3659 (ite (= 1 x_shift_period_929858_month) (ite $x1261 0 0) 0)))
 (let ((?x4060 (ite (= 3 x_shift_period_929858_month) (ite $x1261 60 59) (ite (= 2 x_shift_period_929858_month) (ite $x1261 31 31) ?x3659))))
 (let ((?x1869 (ite (= 5 x_shift_period_929858_month) (ite $x1261 121 120) (ite (= 4 x_shift_period_929858_month) (ite $x1261 91 90) ?x4060))))
 (let ((?x969 (ite (= 7 x_shift_period_929858_month) (ite $x1261 182 181) (ite (= 6 x_shift_period_929858_month) (ite $x1261 152 151) ?x1869))))
 (let ((?x2470 (ite (= 9 x_shift_period_929858_month) (ite $x1261 244 243) (ite (= 8 x_shift_period_929858_month) (ite $x1261 213 212) ?x969))))
 (let ((?x2213 (ite (= 11 x_shift_period_929858_month) (ite $x1261 305 304) (ite (= 10 x_shift_period_929858_month) (ite $x1261 274 273) ?x2470))))
 (let ((?x1731 (+ (* 365 (- x_shift_period_929858_year 1)) (div (- x_shift_period_929858_year 1) 4))))
 (let ((?x658 (+ (- ?x1731 (div (- x_shift_period_929858_year 1) 100)) (div (- x_shift_period_929858_year 1) 400))))
 (let ((?x489 (+ ?x658 (ite (= 12 x_shift_period_929858_month) (ite $x1261 335 334) ?x2213))))
 (= x_shift_period_929858_epoch (- (+ ?x489 (- x_shift_period_929858_day 1)) ?x97)))))))))))))))))))))))))))))))
(assert
 (let ((?x2475 (+ (mod (+ (+ (* 12 x_year) (- x_month 1)) 0) 12) 1)))
 (let (($x3538 (= ?x2475 11)))
 (let (($x515 (= ?x2475 9)))
 (let (($x814 (= ?x2475 6)))
 (let (($x3635 (= ?x2475 4)))
 (let ((?x503 (* 12 x_year)))
 (let ((?x3494 (+ ?x503 (- x_month 1))))
 (let ((?x1806 (+ ?x3494 0)))
 (let ((?x2278 (div ?x1806 12)))
 (let (($x2206 (ite (= (mod ?x2278 400) 0) true (ite (= (mod ?x2278 100) 0) false (= (mod ?x2278 4) 0)))))
 (let (($x570 (= ?x2475 2)))
 (let ((?x2250 (ite $x570 (ite $x2206 29 28) (ite (or $x3635 $x814 $x515 $x3538) 30 31))))
 (let ((?x1067 (ite (<= x_day ?x2250) x_day ?x2250)))
 (let (($x3422 (= x_month 11)))
 (let (($x2295 (= x_month 9)))
 (let (($x786 (= x_month 6)))
 (let (($x3484 (= x_month 4)))
 (let ((?x4082 (ite (or $x3484 $x786 $x2295 $x3422) 30 31)))
 (let (($x2906 (= (mod x_year 4) 0)))
 (let (($x3454 (= (mod x_year 100) 0)))
 (let (($x2726 (= (mod x_year 400) 0)))
 (let (($x189 (ite $x2726 true (ite $x3454 false $x2906))))
 (let (($x2129 (= x_month 2)))
 (let ((?x4047 (ite $x2129 (ite $x189 29 28) ?x4082)))
 (let (($x132 (= x_day ?x4047)))
 (let ((?x2142 (ite (= ?x2475 8) 212 (ite $x515 243 (ite (= ?x2475 10) 273 (ite $x3538 304 334))))))
 (let ((?x4113 (ite (= ?x2475 5) 120 (ite $x814 151 (ite (= ?x2475 7) 181 ?x2142)))))
 (let ((?x761 (ite (= ?x2475 1) 0 (ite $x570 31 (ite (= ?x2475 3) 59 (ite $x3635 90 ?x4113))))))
 (let ((?x3497 (- (+ (* 365 (- ?x2278 1)) (div (- ?x2278 1) 4)) (div (- ?x2278 1) 100))))
 (let ((?x168 (+ (+ ?x3497 (div (- ?x2278 1) 400)) (+ ?x761 (ite (and $x2206 (> ?x2475 2)) 1 0)))))
 (= x_shift_period_929858_epoch (+ (+ ?x168 (- (ite false (ite $x132 ?x2250 ?x1067) ?x1067) 1)) 61)))))))))))))))))))))))))))))))))
(assert
 (= x_shift_period_922371_epoch x_shift_period_929858_epoch))
(check-sat)
